 H  O                                   
   1.00000000000000     
     8.0000000000000000    0.0000000000000000    0.0000000000000000
     0.0000000000000000    8.0000000000000000    0.0000000000000000
     0.0000000000000000    0.0000000000000000    8.0000000000000000
   H    O 
     2     1
Direct
  0.5372744647601970  0.4039465529962515  0.5000000000000000
  0.5372744647601970  0.5960534470037484  0.5000000000000000
  0.4627061454796031  0.4999966325000003  0.5000000000000000
 
  0.00000000E+00  0.00000000E+00  0.00000000E+00
  0.00000000E+00  0.00000000E+00  0.00000000E+00
  0.00000000E+00  0.00000000E+00  0.00000000E+00
